(declare-fun Constructed_Argument_t () String)
(declare-fun CreateAsClass () Bool)
(declare-fun ExpandObjSwitcher () Real)
(declare-fun Constructed_Argument_2_t () String)
(declare-fun Constructed_Argument_2_Array_Length () Int)
(declare-fun CreateAsClass_2 () Bool)
(declare-fun Constructed_Argument_2 () (Array Int Bool))
(define-funs-rec ( ( str.repeat ((x!1 String) (x!2 Int)) String)
                   ( str.whiteLeft ((x!1 String) (x!2 Int)) Int)
                   ( str.whiteRight ((x!1 String) (x!2 Int)) Int))
                 ( (ite (<= x!2 0)
                        ""
                        (str.++ x!1 ((_ str.repeat 0) x!1 (- x!2 1))))
                   (ite (= (str.at x!1 x!2) " ")
                        ((_ str.whiteLeft 0) x!1 (+ x!2 1))
                        x!2)
                   (ite (= (str.at x!1 x!2) " ")
                        ((_ str.whiteRight 0) x!1 (- x!2 1))
                        x!2)))
(assert (= Constructed_Argument_t "object"))
(assert (not CreateAsClass))
(assert (= ExpandObjSwitcher 0.0))
(assert (= Constructed_Argument_2_t "array_bool"))
(assert (>= Constructed_Argument_2_Array_Length 0))
(assert (not CreateAsClass_2))
(assert (not (<= (to_real Constructed_Argument_2_Array_Length) 0.0)))
(assert (select Constructed_Argument_2 0))
(assert (not (<= (to_real Constructed_Argument_2_Array_Length) 1.0)))
(assert (not (select Constructed_Argument_2 1)))

(check-sat)